************************************************************************
file with basedata            : mm62_.bas
initial value random generator: 601239322
************************************************************************
projects                      :  1
jobs (incl. supersource/sink ):  12
horizon                       :  80
RESOURCES
  - renewable                 :  2   R
  - nonrenewable              :  2   N
  - doubly constrained        :  0   D
************************************************************************
PROJECT INFORMATION:
pronr.  #jobs rel.date duedate tardcost  MPM-Time
    1     10      0       11        6       11
************************************************************************
PRECEDENCE RELATIONS:
jobnr.    #modes  #successors   successors
   1        1          3           2   3   4
   2        3          1           7
   3        3          3           5   9  10
   4        3          3           6   7   8
   5        3          2           6   8
   6        3          1          11
   7        3          1           9
   8        3          1          11
   9        3          1          12
  10        3          1          12
  11        3          1          12
  12        1          0        
************************************************************************
REQUESTS/DURATIONS:
jobnr. mode duration  R 1  R 2  N 1  N 2
------------------------------------------------------------------------
  1      1     0       0    0    0    0
  2      1     1       5    9    6   10
         2     1       5    7    8    7
         3     5       3    6    5    4
  3      1     3       5    8    4    6
         2     4       5    3    4    3
         3     4       2    4    4    6
  4      1     2       7    5    9    4
         2     3       7    3    6    4
         3     7       5    2    4    3
  5      1     3       6    8    7    2
         2     6       4    7    7    2
         3    10       3    5    5    1
  6      1     3       4    8    1    8
         2     6       3    7    1    7
         3    10       3    6    1    2
  7      1     3       2    9    6    7
         2     6       2    4    5    7
         3     6       2    2    6    7
  8      1     1       7    9    5    1
         2     7       4    8    4    1
         3    10       1    8    3    1
  9      1     6       6    3    9    4
         2     7       4    2    5    3
         3     8       1    2    3    3
 10      1     1       8    5    6    3
         2     7       7    5    5    3
         3    10       6    5    3    3
 11      1     2       8    9    9    5
         2     5       8    7    6    3
         3    10       6    4    3    1
 12      1     0       0    0    0    0
************************************************************************
RESOURCEAVAILABILITIES:
  R 1  R 2  N 1  N 2
   17   22   50   39
************************************************************************
MAXIMAL LAGS:
from  to  type  delay
    1   12   ES      0
    1    2   ES      0
    2   12   ES      0
    1    3   ES      0
    3   12   ES      0
    1    4   ES      0
    4   12   ES      0
    1    5   ES      0
    5   12   ES      0
    1    6   ES      0
    6   12   ES      0
    1    7   ES      0
    7   12   ES      0
    1    8   ES      0
    8   12   ES      0
    1    9   ES      0
    9   12   ES      0
    1   10   ES      0
   10   12   ES      0
    1   11   ES      0
   11   12   ES      0
    1   12   ES      0
    2    7   SS      6
    2    7   SE     10
    2    7   ES    -10
    2    7   EE     -3
    3    5   SS     -3
    3    5   SE      6
    3    5   ES     -7
    3    5   EE    -12
    3    9   SS     10
    3    9   SE      2
    3    9   ES     -4
    3    9   EE      6
    3   10   SS     -7
    3   10   SE      0
    3   10   ES     12
    3   10   EE      7
    4    6   SS     10
    4    6   SE      6
    4    6   ES      7
    4    6   EE      8
    4    7   SS      1
    4    7   SE     12
    4    7   ES      7
    4    7   EE      6
    4    8   SS      0
    4    8   SE     12
    4    8   ES      9
    4    8   EE     -3
    5    6   SS      5
    5    6   SE      8
    5    6   ES      7
    5    6   EE     12
    5    8   SS      7
    5    8   SE     11
    5    8   ES     11
    5    8   EE      9
    6   11   SS      9
    6   11   SE     12
    6   11   ES      2
    6   11   EE    -10
    7    9   SS      4
    7    9   SE     -3
    7    9   ES     -8
    7    9   EE      5
    8   11   SS     -1
    8   11   SE      6
   11    8   SE      0
    8   11   ES      0
    8   11   EE      8
************************************************************************
